c 3 __LINUXTHREADS_OLD__
c 7 __UCLIBC_HAS_CTYPE_TABLES__
c 1 __UCLIBC_HAS_THREADS_NATIVE__
c 2 __UCLIBC_HAS_XLOCALE__
c 5 __UCLIBC_HAS_LOCALE__
c 6 __LINUXTHREADS_NEW__
c 4 __UCLIBC_HAS_THREADS__
p cnf 7 4
1 3 -2 -4 5 -6 1
1 -7 3 -2 -4 5 6 1
1 -3 -2 -4 5 1
-2 5 -1 -4 1
